webassembly/ejemplos_results/7/folder7_json_51.txt
value = 7;
fgas = [1, 1, 1, 1, 1, 1, 1];
fsize = [1, 1, 1, 1, 1, 1, 1];
states = 
[|   in_0, in_1, in_2, in_3, in_4, '.', '.', '.', '.', '.'
 | 's(0)', in_1, in_2, in_3, in_4, '.', '.', '.', '.', '.'
 | 's(0)', in_1, in_2, in_3, in_4, '.', '.', '.', '.', '.'
 |   in_2, in_3, in_4,  '.',  '.', '.', '.', '.', '.', '.'
 | 's(1)', in_3, in_4,  '.',  '.', '.', '.', '.', '.', '.'
 | 's(2)', in_3, in_4,  '.',  '.', '.', '.', '.', '.', '.'
 |   in_4,  '.',  '.',  '.',  '.', '.', '.', '.', '.', '.'
 | 's(3)',  '.',  '.',  '.',  '.', '.', '.', '.', '.', '.'
 |];
register_states = 
[| local_0, '.', '.', '.', '.'
 | local_0, '.', '.', '.', '.'
 |  's(0)', '.', '.', '.', '.'
 |  's(0)', '.', '.', '.', '.'
 |  's(0)', '.', '.', '.', '.'
 |  's(0)', '.', '.', '.', '.'
 |  's(0)', '.', '.', '.', '.'
 |  's(0)', '.', '.', '.', '.'
 |];
program = [O('i32.load16_s_0'), TEE(TEE1), O('i32.store8_2'), O('i32.load_3'), O('i32.load8_u_4'), O('i32.store_5'), O('i32.load_6')];
% time elapsed: 0.09 s
----------
==========
% time elapsed: 0.09 s
% [value > 6]
